2
1000 3
108
267 1 2
268 1 1
269 1 3
270 1 1
271 1 1
272 1 1
273 1 1
274 1 1
275 1 2
279 1 1
280 1 1
281 1 1
282 1 1
283 1 2
284 1 3
286 1 2
288 1 3
289 1 2
290 1 2
291 1 1
292 1 1
293 1 2
294 1 1
296 1 2
297 1 1
298 1 2
299 1 2
300 1 1
301 1 4
302 1 2
303 1 1
304 1 2
305 1 2
306 1 1
307 1 2
308 1 1
309 1 4
311 1 1
312 1 1
313 1 2
314 1 2
315 1 4
317 1 2
318 1 1
320 1 5
321 1 2
322 1 3
323 1 1
324 1 2
325 1 1
327 1 3
328 1 3
330 1 1
331 1 1
333 1 1
334 1 2
335 1 3
336 1 4
339 1 1
340 1 1
341 1 1
342 1 3
343 1 2
344 1 2
345 1 3
346 1 1
347 1 3
348 1 5
349 1 1
350 1 1
352 1 1
353 1 1
355 1 1
356 1 2
357 1 2
358 1 1
359 1 2
361 1 4
362 1 1
363 1 1
364 1 1
365 1 1
366 1 4
367 1 5
368 1 4
369 1 1
370 1 1
373 1 2
374 1 1
376 1 2
377 1 4
378 1 4
379 1 2
380 1 1
381 1 1
382 1 1
385 1 2
386 1 3
387 1 2
388 1 1
389 1 1
390 1 1
391 1 1
392 1 1
393 1 2
394 1 1
395 1 1
396 1 1
